12 30
6 8 12
7 9 12
3 5 8 10
1 5 9
5 7 11
2 4 9 12
2 5 10 11
5 7 11
3 7 8 10
3 5 6 7
7 9 10
6 9 11
2 5 7 8
1 2 9
1 3 8
5 7 10 12
5 9 10
3 6 8
1 3 11
2 5 8 12
4 5 6 12
1 5 6 8
6 9 12
1 4 5 10
5 8 11 12
2 3 8 9
3 5 9
2 3 4 12
7 10 12
3 5 7
6 4 6 7 5 7 8 6 4 7 6 6 6 4 6 5 6 6 8 7 7 4 5 8 7 7 8 5 7 8
